&CONTROL
    calculation = 'md'
    verbosity = 'high'
    restart_mode = 'from_scratch'
    nstep = 200
    outdir = 'out', 
    prefix = 'relax', 
/
&SYSTEM
	ibrav = 0,
	nat = 66,
	ntyp = 2, 
 	ecutwfc = 60.0D0,
	ecutrho = 240.0D0,
	vdw_corr = 'dft-d',
	nbnd = 111,
	nosym=.true.
	assume_isolated = 'mt',
/
&ELECTRONS
	conv_thr = 1.D-10, 
  	mixing_beta = 0.5D0,
	electron_maxstep = 1000,
	diagonalization='cg',
/
&IONS
	ion_temperature = 'andersen'
	tempw = 3000,
/
&CELL
/
ATOMIC_SPECIES
H	1.0079	H.pbe-tm-new-gipaw-dc.UPF
C	12.0107	C.pbe-tm-new-gipaw-dc.UPF
ATOMIC_POSITIONS angstrom
C	14.72137033	12.46794042	12.19868264
C	13.29690917	12.46576369	12.66833423
C	15.03622678	12.04316375	10.88193596
C	15.75476073	12.89666471	13.07169195
C	11.32858255	13.68243373	13.45502181
C	11.26723433	11.24351673	13.26805324
C	12.59196463	11.25771503	12.79738269
C	12.65623995	13.67271862	12.99318791
C	16.40807162	12.04581833	10.43746941
C	17.12233714	12.90127186	12.6142932
C	10.65336894	12.46022035	13.6096784
C	10.65434832	14.95745471	13.84188839
C	10.53153	9.95984108	13.47128497
C	17.42197497	12.47521521	11.30970676
C	10.63704719	16.10639941	12.97749893
C	10.45109232	8.95199392	12.44896117
C	14.02939647	11.63232424	9.94761019
C	15.49783628	13.30507917	14.42184979
C	16.71121191	11.61460905	9.10512964
C	18.15552083	13.3369524	13.5062994
C	10.02302433	17.31507041	13.44163882
C	9.7791255	7.72016375	12.73965876
C	10.03238136	15.03270153	15.08247974
C	9.91339191	9.73438725	14.69556549
C	14.35776996	11.22850425	8.67554293
C	16.51571659	13.7133995	15.25027869
C	15.71549963	11.21314126	8.24885697
C	17.86122862	13.73615096	14.786864
C	11.16528151	16.08578994	11.65379822
C	10.97216201	9.13998503	11.13573747
C	9.42803279	17.35206295	14.73446251
C	9.19027452	7.5236403	14.02081172
C	9.42262644	16.22611301	15.53074992
C	9.24646276	8.51979367	14.97284272
C	10.00635407	18.46066319	12.59472829
C	9.699377	6.713232	11.73485721
C	11.12595868	17.20887499	10.85262875
C	10.87122399	8.14972868	10.1797199
C	10.55242603	18.41191515	11.32963001
C	10.23988321	6.91969826	10.48335066
H	13.09355139	10.32077111	12.57071744
H	13.20272183	14.60759642	12.90299077
H	9.62821961	12.45828861	13.97117536
H	18.45515205	12.47821507	10.96952588
H	12.9861295	11.64520333	10.25263596
H	14.47799496	13.28549048	14.79660843
H	17.7492718	11.61431802	8.78187589
H	19.18256353	13.3426572	13.14963344
H	10.03662852	14.16417797	15.73583434
H	9.96519264	10.49666459	15.46853565
H	13.57833568	10.92158285	7.98377126
H	16.29821799	14.018117	16.2701317
H	15.95547749	10.88902743	7.24017414
H	18.6518534	14.06378996	15.45592309
H	11.59303583	15.16731227	11.26189055
H	11.44435835	10.08375624	10.87641814
H	8.96994147	18.27542894	15.07942805
H	8.68776487	6.58351629	14.23318275
H	8.95912329	16.25170476	16.51297999
H	8.78771872	8.37368533	15.94673627
H	9.54668899	19.37560038	12.96008212
H	9.19591973	5.77850229	11.96873399
H	11.53164315	17.17132028	9.84554353
H	11.2727429	8.3142493	9.18375695
H	10.53266552	19.28923049	10.6893662
H	10.1718613	6.14768079	9.72218481
CELL_PARAMETERS angstrom
25.0	0.0	0.0
0.0	25.0	0.0
0.0	0.0	25.0
